c v 5
c e 0 1 23
c e 0 2 18
c e 0 3 12
c e 0 4 9
c e 1 2 6
c e 1 3 1
c e 1 4 4
c e 2 3 2
c e 2 4 13
c e 3 4 27
p cnf 27 52
1 2 3 0
-1 -2 3 0
1 4 5 0
-1 -4 5 0
6 4 7 0
-6 -4 7 0
6 1 8 0
-6 -1 8 0
9 2 10 0
-9 -2 10 0
9 4 11 0
-9 -4 11 0
12 13 14 0
-12 -13 14 0
12 1 15 0
-12 -1 15 0
12 6 16 0
-12 -6 16 0
12 9 17 0
-12 -9 17 0
18 4 19 0
-18 -4 19 0
18 1 20 0
-18 -1 20 0
18 6 21 0
-18 -6 21 0
18 12 22 0
-18 -12 22 0
23 2 24 0
-23 -2 24 0
23 6 25 0
-23 -6 25 0
23 18 26 0
-23 -18 26 0
23 -1 -7 -10 -14 -22 -25 0
-2 13 -5 -8 -17 -22 0
-13 27 -11 -16 -20 0
-9 4 -15 -21 0
-6 1 -22 -26 0
-4 13 -3 -26 0
-13 27 -8 -22 0
-12 1 -19 0
-12 1 -21 0
-12 9 -26 0
-1 2 -26 0
23 -18 -25 0
-18 13 -24 0
-1 4 -17 0
-23 18 0
-18 12 0
-18 9 0
-23 6 0
